1000
[200,201,202,203,205,211,212,219,222,223,225,226,227,229,230,231,233,234,237,238,240,241,244,245,246,251,252,253,255,257,263,264,267,269,270,271,272,279,280,290,291,292,294,299,300,302,303,305,307,310,311,319,323,325,326,327,330,331,334,336,338,339,340,341,343,345,348,349,351,354,359,360,363,364,369,370,371,372,375,377,379,380,381,382,385,386,388,390,392,393,394,395,397,399,401,402,406,407,411,412,417,418,420,421,422,423,424,427,428,429,431,435,436,437,439,440,441,444,445,448,450,451,452,457,458,460,462,468,470,471,474,475,480,481,482,483,484,488,489,490,491,495,496,498,499,500,501,502,504,508,510,511,514,515,516,517,519,520,521,522,524,526,527,530,531,533,535,536,541,543,545,546,548,550,552,553,556,557,558,561,563,567,568,570,571,572,576,577,580,584,586,587,590,591,595,596,597,599,602,604,606,607,612,613,619,621,624,625,626,627,631,632,633,634,635,636,637,639,640,641,643,647,648,649,653,654,656,659,669,672,673,675,677,682,683,684,685,691,692,694,700,702,704,706,707,708,713,714,715,716,720,722,724,726,727,730,731,732,734,741,743,744,745,746,747,751,752,754,755,756,757,765,767,769,771,772,773,774,775,778,779,782,783,784,785,790,796,798]
[1,1,1,1,1,1,3,1,1,1,1,1,2,1,1,3,1,1,1,2,1,2,2,3,1,1,2,1,2,2,1,2,1,1,1,1,3,2,1,3,2,1,1,1,2,2,1,2,1,2,1,1,1,2,1,3,1,1,1,1,3,1,2,1,2,1,3,1,1,1,1,1,2,2,1,1,2,1,2,1,1,1,2,2,4,1,5,2,1,1,2,2,2,3,1,2,2,2,1,1,1,1,1,2,2,1,1,1,2,1,1,3,1,1,1,1,1,1,1,1,1,1,1,2,1,1,1,1,1,1,2,1,1,1,1,2,1,1,1,2,1,1,2,2,1,1,3,2,1,1,1,1,1,1,1,1,3,1,1,1,2,1,1,2,1,1,3,2,1,2,2,1,1,1,1,1,2,1,1,2,2,1,2,2,2,1,1,1,1,1,1,1,1,1,2,1,1,2,2,1,1,3,1,1,1,1,1,1,2,1,1,2,1,1,1,1,1,1,2,1,1,1,1,1,2,4,3,1,2,1,1,2,2,1,1,1,1,1,1,1,1,1,3,2,1,1,1,1,1,1,1,1,1,1,1,1,1,1,1,3,1,1,1,1,1,1,1,1,1,2,3,1,1,1,2,1,1,1,1,1,1,1,1,1,2,1,2,1]
